c Reduced graph for r29 generated by Cyril Grelier
p edge 281 3553
e 1 4
e 1 6
e 1 20
e 1 25
e 1 31
e 1 35
e 1 37
e 1 59
e 1 74
e 1 87
e 1 117
e 1 122
e 1 123
e 1 140
e 1 143
e 1 156
e 1 157
e 1 166
e 1 172
e 1 182
e 1 188
e 1 198
e 1 203
e 1 210
e 1 213
e 1 232
e 1 267
e 2 36
e 2 50
e 2 70
e 2 75
e 2 99
e 2 102
e 2 114
e 2 115
e 2 118
e 2 120
e 2 145
e 2 146
e 2 148
e 2 162
e 2 179
e 2 205
e 2 206
e 2 215
e 2 224
e 2 225
e 2 239
e 2 247
e 2 250
e 2 255
e 2 258
e 2 267
e 3 6
e 3 10
e 3 18
e 3 38
e 3 83
e 3 85
e 3 94
e 3 95
e 3 96
e 3 107
e 3 108
e 3 142
e 3 166
e 3 171
e 3 173
e 3 176
e 3 183
e 3 195
e 3 202
e 3 207
e 3 212
e 3 228
e 3 231
e 3 235
e 3 236
e 3 237
e 3 245
e 3 258
e 3 271
e 4 6
e 4 25
e 4 41
e 4 45
e 4 49
e 4 68
e 4 87
e 4 93
e 4 109
e 4 122
e 4 140
e 4 143
e 4 152
e 4 156
e 4 157
e 4 172
e 4 198
e 4 202
e 4 214
e 4 232
e 4 267
e 4 278
e 4 280
e 5 25
e 5 29
e 5 40
e 5 52
e 5 76
e 5 89
e 5 91
e 5 103
e 5 118
e 5 128
e 5 129
e 5 132
e 5 149
e 5 158
e 5 161
e 5 162
e 5 177
e 5 187
e 5 188
e 5 191
e 5 197
e 5 252
e 5 254
e 5 264
e 5 268
e 5 275
e 6 18
e 6 25
e 6 83
e 6 87
e 6 96
e 6 107
e 6 122
e 6 140
e 6 143
e 6 156
e 6 157
e 6 171
e 6 172
e 6 173
e 6 183
e 6 195
e 6 198
e 6 212
e 6 231
e 6 232
e 6 235
e 6 236
e 6 237
e 6 258
e 6 267
e 7 8
e 7 9
e 7 15
e 7 48
e 7 60
e 7 65
e 7 77
e 7 79
e 7 105
e 7 113
e 7 123
e 7 131
e 7 135
e 7 165
e 7 167
e 7 168
e 7 174
e 7 187
e 7 193
e 7 201
e 7 221
e 7 230
e 7 239
e 7 245
e 8 9
e 8 11
e 8 15
e 8 42
e 8 48
e 8 51
e 8 53
e 8 59
e 8 67
e 8 79
e 8 109
e 8 113
e 8 131
e 8 134
e 8 150
e 8 155
e 8 174
e 8 187
e 8 201
e 8 211
e 8 219
e 8 221
e 8 230
e 8 245
e 8 261
e 8 262
e 8 268
e 8 269
e 9 15
e 9 39
e 9 41
e 9 48
e 9 79
e 9 80
e 9 101
e 9 113
e 9 119
e 9 125
e 9 131
e 9 169
e 9 174
e 9 177
e 9 181
e 9 187
e 9 201
e 9 221
e 9 230
e 9 236
e 9 245
e 9 255
e 9 260
e 10 38
e 10 53
e 10 85
e 10 94
e 10 95
e 10 108
e 10 110
e 10 125
e 10 128
e 10 142
e 10 166
e 10 176
e 10 179
e 10 202
e 10 207
e 10 228
e 10 245
e 10 251
e 10 259
e 10 265
e 10 271
e 10 273
e 10 277
e 11 21
e 11 24
e 11 39
e 11 42
e 11 51
e 11 53
e 11 59
e 11 65
e 11 67
e 11 100
e 11 109
e 11 112
e 11 134
e 11 140
e 11 150
e 11 154
e 11 155
e 11 190
e 11 194
e 11 204
e 11 211
e 11 218
e 11 219
e 11 261
e 11 262
e 11 268
e 11 269
e 12 14
e 12 16
e 12 21
e 12 23
e 12 30
e 12 34
e 12 40
e 12 50
e 12 64
e 12 76
e 12 77
e 12 86
e 12 92
e 12 97
e 12 102
e 12 153
e 12 171
e 12 178
e 12 192
e 12 199
e 12 207
e 12 210
e 12 219
e 12 222
e 12 232
e 12 246
e 12 260
e 13 27
e 13 32
e 13 33
e 13 61
e 13 63
e 13 74
e 13 84
e 13 91
e 13 98
e 13 105
e 13 111
e 13 120
e 13 131
e 13 139
e 13 142
e 13 143
e 13 173
e 13 185
e 13 199
e 13 204
e 13 215
e 13 220
e 13 226
e 13 256
e 13 273
e 14 21
e 14 34
e 14 50
e 14 64
e 14 76
e 14 86
e 14 88
e 14 89
e 14 92
e 14 106
e 14 133
e 14 150
e 14 153
e 14 171
e 14 178
e 14 196
e 14 198
e 14 209
e 14 210
e 14 222
e 14 226
e 14 248
e 15 26
e 15 45
e 15 46
e 15 48
e 15 79
e 15 106
e 15 113
e 15 117
e 15 131
e 15 174
e 15 187
e 15 200
e 15 201
e 15 221
e 15 230
e 15 238
e 15 245
e 15 274
e 16 17
e 16 19
e 16 23
e 16 24
e 16 28
e 16 30
e 16 40
e 16 48
e 16 63
e 16 71
e 16 73
e 16 77
e 16 93
e 16 97
e 16 102
e 16 148
e 16 159
e 16 175
e 16 192
e 16 199
e 16 207
e 16 219
e 16 232
e 16 246
e 16 260
e 17 19
e 17 24
e 17 28
e 17 38
e 17 48
e 17 57
e 17 63
e 17 71
e 17 73
e 17 93
e 17 116
e 17 122
e 17 126
e 17 134
e 17 135
e 17 148
e 17 151
e 17 159
e 17 175
e 17 180
e 17 184
e 17 241
e 17 243
e 18 75
e 18 83
e 18 96
e 18 107
e 18 112
e 18 116
e 18 171
e 18 173
e 18 183
e 18 185
e 18 195
e 18 203
e 18 212
e 18 214
e 18 216
e 18 227
e 18 231
e 18 235
e 18 236
e 18 237
e 18 246
e 18 257
e 18 258
e 18 272
e 19 24
e 19 28
e 19 32
e 19 48
e 19 60
e 19 63
e 19 71
e 19 72
e 19 73
e 19 82
e 19 93
e 19 103
e 19 108
e 19 148
e 19 159
e 19 175
e 19 178
e 19 208
e 19 238
e 19 253
e 19 257
e 20 31
e 20 35
e 20 37
e 20 47
e 20 55
e 20 59
e 20 61
e 20 72
e 20 74
e 20 90
e 20 117
e 20 121
e 20 123
e 20 126
e 20 146
e 20 154
e 20 166
e 20 170
e 20 182
e 20 188
e 20 203
e 20 210
e 20 213
e 20 231
e 20 264
e 20 277
e 21 24
e 21 34
e 21 39
e 21 50
e 21 64
e 21 65
e 21 76
e 21 86
e 21 92
e 21 100
e 21 112
e 21 140
e 21 153
e 21 154
e 21 171
e 21 178
e 21 190
e 21 194
e 21 204
e 21 210
e 21 218
e 21 222
e 22 35
e 22 54
e 22 58
e 22 69
e 22 85
e 22 100
e 22 104
e 22 139
e 22 147
e 22 152
e 22 153
e 22 193
e 22 195
e 22 205
e 22 206
e 22 208
e 22 217
e 22 229
e 22 261
e 22 274
e 22 276
e 23 30
e 23 33
e 23 40
e 23 62
e 23 66
e 23 68
e 23 77
e 23 96
e 23 97
e 23 102
e 23 136
e 23 158
e 23 160
e 23 174
e 23 192
e 23 199
e 23 207
e 23 213
e 23 217
e 23 219
e 23 225
e 23 232
e 23 241
e 23 246
e 23 248
e 23 253
e 23 260
e 23 270
e 24 28
e 24 39
e 24 48
e 24 63
e 24 65
e 24 71
e 24 73
e 24 93
e 24 100
e 24 112
e 24 140
e 24 148
e 24 154
e 24 159
e 24 175
e 24 190
e 24 194
e 24 204
e 24 218
e 25 29
e 25 76
e 25 87
e 25 122
e 25 129
e 25 140
e 25 143
e 25 149
e 25 156
e 25 157
e 25 158
e 25 162
e 25 172
e 25 177
e 25 191
e 25 198
e 25 232
e 25 254
e 25 264
e 25 267
e 25 268
e 25 275
e 26 45
e 26 46
e 26 66
e 26 84
e 26 92
e 26 95
e 26 106
e 26 114
e 26 117
e 26 119
e 26 121
e 26 127
e 26 164
e 26 200
e 26 229
e 26 234
e 26 238
e 26 244
e 26 269
e 26 274
e 27 29
e 27 30
e 27 33
e 27 37
e 27 61
e 27 63
e 27 88
e 27 91
e 27 98
e 27 105
e 27 107
e 27 115
e 27 120
e 27 138
e 27 139
e 27 141
e 27 142
e 27 143
e 27 184
e 27 185
e 27 218
e 27 220
e 27 230
e 27 256
e 27 259
e 27 276
e 28 48
e 28 55
e 28 56
e 28 63
e 28 67
e 28 71
e 28 73
e 28 87
e 28 93
e 28 148
e 28 159
e 28 160
e 28 167
e 28 175
e 28 176
e 28 200
e 28 240
e 28 252
e 28 266
e 28 272
e 29 30
e 29 37
e 29 76
e 29 88
e 29 107
e 29 115
e 29 129
e 29 138
e 29 141
e 29 149
e 29 158
e 29 162
e 29 177
e 29 184
e 29 191
e 29 218
e 29 230
e 29 254
e 29 259
e 29 264
e 29 268
e 29 275
e 29 276
e 30 37
e 30 40
e 30 77
e 30 88
e 30 97
e 30 102
e 30 107
e 30 115
e 30 138
e 30 141
e 30 184
e 30 192
e 30 199
e 30 207
e 30 218
e 30 219
e 30 230
e 30 232
e 30 246
e 30 259
e 30 260
e 30 276
e 31 35
e 31 37
e 31 59
e 31 69
e 31 74
e 31 81
e 31 82
e 31 99
e 31 110
e 31 117
e 31 123
e 31 144
e 31 149
e 31 164
e 31 166
e 31 182
e 31 188
e 31 192
e 31 201
e 31 203
e 31 209
e 31 210
e 31 212
e 31 213
e 31 220
e 31 233
e 31 243
e 31 279
e 32 60
e 32 72
e 32 74
e 32 82
e 32 84
e 32 103
e 32 108
e 32 111
e 32 131
e 32 173
e 32 178
e 32 199
e 32 204
e 32 208
e 32 215
e 32 226
e 32 238
e 32 253
e 32 257
e 32 273
e 33 61
e 33 62
e 33 63
e 33 66
e 33 68
e 33 91
e 33 96
e 33 98
e 33 105
e 33 120
e 33 136
e 33 139
e 33 142
e 33 143
e 33 158
e 33 160
e 33 174
e 33 185
e 33 213
e 33 217
e 33 220
e 33 225
e 33 241
e 33 248
e 33 253
e 33 256
e 33 270
e 34 46
e 34 50
e 34 51
e 34 62
e 34 64
e 34 76
e 34 86
e 34 92
e 34 101
e 34 104
e 34 111
e 34 144
e 34 153
e 34 159
e 34 163
e 34 168
e 34 171
e 34 178
e 34 210
e 34 216
e 34 222
e 34 224
e 34 249
e 34 281
e 35 37
e 35 58
e 35 59
e 35 74
e 35 100
e 35 104
e 35 117
e 35 123
e 35 139
e 35 147
e 35 152
e 35 166
e 35 182
e 35 188
e 35 195
e 35 203
e 35 206
e 35 208
e 35 210
e 35 213
e 35 229
e 36 49
e 36 50
e 36 54
e 36 57
e 36 70
e 36 75
e 36 78
e 36 99
e 36 115
e 36 118
e 36 146
e 36 148
e 36 163
e 36 182
e 36 189
e 36 190
e 36 191
e 36 196
e 36 206
e 36 215
e 36 221
e 36 225
e 36 234
e 36 235
e 36 239
e 36 247
e 36 251
e 36 255
e 36 267
e 37 59
e 37 74
e 37 88
e 37 107
e 37 115
e 37 117
e 37 123
e 37 138
e 37 141
e 37 166
e 37 182
e 37 184
e 37 188
e 37 203
e 37 210
e 37 213
e 37 218
e 37 230
e 37 259
e 37 276
e 38 57
e 38 85
e 38 94
e 38 95
e 38 108
e 38 116
e 38 122
e 38 126
e 38 134
e 38 135
e 38 142
e 38 151
e 38 166
e 38 176
e 38 180
e 38 184
e 38 202
e 38 207
e 38 228
e 38 241
e 38 243
e 38 245
e 38 271
e 39 41
e 39 65
e 39 80
e 39 100
e 39 101
e 39 112
e 39 119
e 39 125
e 39 140
e 39 154
e 39 169
e 39 177
e 39 181
e 39 190
e 39 194
e 39 204
e 39 218
e 39 236
e 39 255
e 39 260
e 40 52
e 40 77
e 40 89
e 40 91
e 40 97
e 40 102
e 40 103
e 40 118
e 40 128
e 40 132
e 40 161
e 40 187
e 40 188
e 40 192
e 40 197
e 40 199
e 40 207
e 40 219
e 40 232
e 40 246
e 40 252
e 40 260
e 41 45
e 41 49
e 41 68
e 41 80
e 41 93
e 41 101
e 41 109
e 41 119
e 41 125
e 41 152
e 41 169
e 41 177
e 41 181
e 41 202
e 41 214
e 41 236
e 41 255
e 41 260
e 41 278
e 41 280
e 42 51
e 42 53
e 42 58
e 42 59
e 42 67
e 42 71
e 42 86
e 42 109
e 42 124
e 42 132
e 42 134
e 42 150
e 42 155
e 42 156
e 42 170
e 42 181
e 42 211
e 42 219
e 42 261
e 42 262
e 42 268
e 42 269
e 42 271
e 42 279
e 43 52
e 43 78
e 43 79
e 43 81
e 43 94
e 43 137
e 43 141
e 43 145
e 43 147
e 43 151
e 43 169
e 43 175
e 43 186
e 43 194
e 43 211
e 43 223
e 43 237
e 43 240
e 43 244
e 43 249
e 43 265
e 43 275
e 44 64
e 44 73
e 44 90
e 44 98
e 44 113
e 44 127
e 44 130
e 44 137
e 44 155
e 44 165
e 44 172
e 44 183
e 44 197
e 44 228
e 44 233
e 44 247
e 44 254
e 44 263
e 44 266
e 44 270
e 44 278
e 44 281
e 45 46
e 45 49
e 45 68
e 45 93
e 45 106
e 45 109
e 45 117
e 45 152
e 45 200
e 45 202
e 45 214
e 45 238
e 45 274
e 45 278
e 45 280
e 46 51
e 46 62
e 46 101
e 46 104
e 46 106
e 46 111
e 46 117
e 46 144
e 46 159
e 46 163
e 46 168
e 46 200
e 46 216
e 46 224
e 46 238
e 46 249
e 46 274
e 46 281
e 47 55
e 47 61
e 47 72
e 47 80
e 47 90
e 47 121
e 47 126
e 47 130
e 47 136
e 47 138
e 47 146
e 47 154
e 47 157
e 47 161
e 47 170
e 47 186
e 47 189
e 47 222
e 47 227
e 47 231
e 47 242
e 47 250
e 47 262
e 47 264
e 47 277
e 48 63
e 48 71
e 48 73
e 48 79
e 48 93
e 48 113
e 48 131
e 48 148
e 48 159
e 48 174
e 48 175
e 48 187
e 48 201
e 48 221
e 48 230
e 48 245
e 49 54
e 49 57
e 49 68
e 49 78
e 49 93
e 49 109
e 49 152
e 49 163
e 49 182
e 49 189
e 49 190
e 49 191
e 49 196
e 49 202
e 49 214
e 49 221
e 49 234
e 49 235
e 49 251
e 49 278
e 49 280
e 50 64
e 50 70
e 50 75
e 50 76
e 50 86
e 50 92
e 50 99
e 50 115
e 50 118
e 50 146
e 50 148
e 50 153
e 50 171
e 50 178
e 50 206
e 50 210
e 50 215
e 50 222
e 50 225
e 50 239
e 50 247
e 50 255
e 50 267
e 51 53
e 51 59
e 51 62
e 51 67
e 51 101
e 51 104
e 51 109
e 51 111
e 51 134
e 51 144
e 51 150
e 51 155
e 51 159
e 51 163
e 51 168
e 51 211
e 51 216
e 51 219
e 51 224
e 51 249
e 51 261
e 51 262
e 51 268
e 51 269
e 51 281
e 52 78
e 52 81
e 52 89
e 52 91
e 52 94
e 52 103
e 52 118
e 52 128
e 52 132
e 52 137
e 52 141
e 52 145
e 52 147
e 52 161
e 52 169
e 52 175
e 52 187
e 52 188
e 52 197
e 52 211
e 52 223
e 52 252
e 53 59
e 53 67
e 53 109
e 53 110
e 53 125
e 53 128
e 53 134
e 53 150
e 53 155
e 53 179
e 53 211
e 53 219
e 53 251
e 53 259
e 53 261
e 53 262
e 53 265
e 53 268
e 53 269
e 53 273
e 53 277
e 54 57
e 54 69
e 54 78
e 54 85
e 54 153
e 54 163
e 54 182
e 54 189
e 54 190
e 54 191
e 54 193
e 54 196
e 54 205
e 54 217
e 54 221
e 54 234
e 54 235
e 54 251
e 54 261
e 54 274
e 54 276
e 55 56
e 55 61
e 55 67
e 55 72
e 55 87
e 55 90
e 55 121
e 55 126
e 55 146
e 55 154
e 55 160
e 55 167
e 55 170
e 55 176
e 55 200
e 55 231
e 55 240
e 55 252
e 55 264
e 55 266
e 55 272
e 55 277
e 56 67
e 56 70
e 56 83
e 56 87
e 56 97
e 56 124
e 56 129
e 56 133
e 56 160
e 56 167
e 56 176
e 56 180
e 56 200
e 56 223
e 56 240
e 56 242
e 56 252
e 56 256
e 56 263
e 56 266
e 56 272
e 56 280
e 57 78
e 57 116
e 57 122
e 57 126
e 57 134
e 57 135
e 57 151
e 57 163
e 57 180
e 57 182
e 57 184
e 57 189
e 57 190
e 57 191
e 57 196
e 57 221
e 57 234
e 57 235
e 57 241
e 57 243
e 57 251
e 58 71
e 58 86
e 58 100
e 58 104
e 58 124
e 58 132
e 58 139
e 58 147
e 58 152
e 58 156
e 58 170
e 58 181
e 58 195
e 58 206
e 58 208
e 58 229
e 58 271
e 58 279
e 59 67
e 59 74
e 59 109
e 59 117
e 59 123
e 59 134
e 59 150
e 59 155
e 59 166
e 59 182
e 59 188
e 59 203
e 59 210
e 59 211
e 59 213
e 59 219
e 59 261
e 59 262
e 59 268
e 59 269
e 60 65
e 60 72
e 60 77
e 60 82
e 60 103
e 60 105
e 60 108
e 60 123
e 60 135
e 60 165
e 60 167
e 60 168
e 60 178
e 60 193
e 60 208
e 60 238
e 60 239
e 60 253
e 60 257
e 61 63
e 61 72
e 61 90
e 61 91
e 61 98
e 61 105
e 61 120
e 61 121
e 61 126
e 61 139
e 61 142
e 61 143
e 61 146
e 61 154
e 61 170
e 61 185
e 61 220
e 61 231
e 61 256
e 61 264
e 61 277
e 62 66
e 62 68
e 62 96
e 62 101
e 62 104
e 62 111
e 62 136
e 62 144
e 62 158
e 62 159
e 62 160
e 62 163
e 62 168
e 62 174
e 62 213
e 62 216
e 62 217
e 62 224
e 62 225
e 62 241
e 62 248
e 62 249
e 62 253
e 62 270
e 62 281
e 63 71
e 63 73
e 63 91
e 63 93
e 63 98
e 63 105
e 63 120
e 63 139
e 63 142
e 63 143
e 63 148
e 63 159
e 63 175
e 63 185
e 63 220
e 63 256
e 64 73
e 64 76
e 64 86
e 64 90
e 64 92
e 64 153
e 64 155
e 64 165
e 64 171
e 64 172
e 64 178
e 64 197
e 64 210
e 64 222
e 64 228
e 64 233
e 64 263
e 64 270
e 65 77
e 65 100
e 65 105
e 65 112
e 65 123
e 65 135
e 65 140
e 65 154
e 65 165
e 65 167
e 65 168
e 65 190
e 65 193
e 65 194
e 65 204
e 65 218
e 65 239
e 66 68
e 66 84
e 66 92
e 66 95
e 66 96
e 66 114
e 66 119
e 66 121
e 66 127
e 66 136
e 66 158
e 66 160
e 66 164
e 66 174
e 66 213
e 66 217
e 66 225
e 66 229
e 66 234
e 66 241
e 66 244
e 66 248
e 66 253
e 66 269
e 66 270
e 67 87
e 67 109
e 67 134
e 67 150
e 67 155
e 67 160
e 67 167
e 67 176
e 67 200
e 67 211
e 67 219
e 67 240
e 67 252
e 67 261
e 67 262
e 67 266
e 67 268
e 67 269
e 67 272
e 68 93
e 68 96
e 68 109
e 68 136
e 68 152
e 68 158
e 68 160
e 68 174
e 68 202
e 68 213
e 68 214
e 68 217
e 68 225
e 68 241
e 68 248
e 68 253
e 68 270
e 68 278
e 68 280
e 69 81
e 69 82
e 69 85
e 69 99
e 69 110
e 69 144
e 69 149
e 69 153
e 69 164
e 69 192
e 69 193
e 69 201
e 69 205
e 69 209
e 69 212
e 69 217
e 69 220
e 69 233
e 69 243
e 69 261
e 69 274
e 69 276
e 69 279
e 70 75
e 70 83
e 70 97
e 70 99
e 70 115
e 70 118
e 70 124
e 70 129
e 70 133
e 70 146
e 70 148
e 70 180
e 70 206
e 70 215
e 70 223
e 70 225
e 70 239
e 70 242
e 70 247
e 70 255
e 70 256
e 70 263
e 70 267
e 70 280
e 71 73
e 71 86
e 71 93
e 71 124
e 71 132
e 71 148
e 71 156
e 71 159
e 71 170
e 71 175
e 71 181
e 71 271
e 71 279
e 72 82
e 72 90
e 72 103
e 72 108
e 72 121
e 72 126
e 72 146
e 72 154
e 72 170
e 72 178
e 72 208
e 72 231
e 72 238
e 72 253
e 72 257
e 72 264
e 72 277
e 73 90
e 73 93
e 73 148
e 73 155
e 73 159
e 73 165
e 73 172
e 73 175
e 73 197
e 73 228
e 73 233
e 73 263
e 73 270
e 74 84
e 74 111
e 74 117
e 74 123
e 74 131
e 74 166
e 74 173
e 74 182
e 74 188
e 74 199
e 74 203
e 74 204
e 74 210
e 74 213
e 74 215
e 74 226
e 74 273
e 75 99
e 75 112
e 75 115
e 75 116
e 75 118
e 75 146
e 75 148
e 75 185
e 75 203
e 75 206
e 75 214
e 75 215
e 75 216
e 75 225
e 75 227
e 75 239
e 75 246
e 75 247
e 75 255
e 75 257
e 75 267
e 75 272
e 76 86
e 76 92
e 76 129
e 76 149
e 76 153
e 76 158
e 76 162
e 76 171
e 76 177
e 76 178
e 76 191
e 76 210
e 76 222
e 76 254
e 76 264
e 76 268
e 76 275
e 77 97
e 77 102
e 77 105
e 77 123
e 77 135
e 77 165
e 77 167
e 77 168
e 77 192
e 77 193
e 77 199
e 77 207
e 77 219
e 77 232
e 77 239
e 77 246
e 77 260
e 78 81
e 78 94
e 78 137
e 78 141
e 78 145
e 78 147
e 78 163
e 78 169
e 78 175
e 78 182
e 78 189
e 78 190
e 78 191
e 78 196
e 78 211
e 78 221
e 78 223
e 78 234
e 78 235
e 78 251
e 79 113
e 79 131
e 79 151
e 79 174
e 79 186
e 79 187
e 79 194
e 79 201
e 79 221
e 79 230
e 79 237
e 79 240
e 79 244
e 79 245
e 79 249
e 79 265
e 79 275
e 80 101
e 80 119
e 80 125
e 80 130
e 80 136
e 80 138
e 80 157
e 80 161
e 80 169
e 80 177
e 80 181
e 80 186
e 80 189
e 80 222
e 80 227
e 80 236
e 80 242
e 80 250
e 80 255
e 80 260
e 80 262
e 81 82
e 81 94
e 81 99
e 81 110
e 81 137
e 81 141
e 81 144
e 81 145
e 81 147
e 81 149
e 81 164
e 81 169
e 81 175
e 81 192
e 81 201
e 81 209
e 81 211
e 81 212
e 81 220
e 81 223
e 81 233
e 81 243
e 81 279
e 82 99
e 82 103
e 82 108
e 82 110
e 82 144
e 82 149
e 82 164
e 82 178
e 82 192
e 82 201
e 82 208
e 82 209
e 82 212
e 82 220
e 82 233
e 82 238
e 82 243
e 82 253
e 82 257
e 82 279
e 83 96
e 83 97
e 83 107
e 83 124
e 83 129
e 83 133
e 83 171
e 83 173
e 83 180
e 83 183
e 83 195
e 83 212
e 83 223
e 83 231
e 83 235
e 83 236
e 83 237
e 83 242
e 83 256
e 83 258
e 83 263
e 83 280
e 84 92
e 84 95
e 84 111
e 84 114
e 84 119
e 84 121
e 84 127
e 84 131
e 84 164
e 84 173
e 84 199
e 84 204
e 84 215
e 84 226
e 84 229
e 84 234
e 84 244
e 84 269
e 84 273
e 85 94
e 85 95
e 85 108
e 85 142
e 85 153
e 85 166
e 85 176
e 85 193
e 85 202
e 85 205
e 85 207
e 85 217
e 85 228
e 85 245
e 85 261
e 85 271
e 85 274
e 85 276
e 86 92
e 86 124
e 86 132
e 86 153
e 86 156
e 86 170
e 86 171
e 86 178
e 86 181
e 86 210
e 86 222
e 86 271
e 86 279
e 87 122
e 87 140
e 87 143
e 87 156
e 87 157
e 87 160
e 87 167
e 87 172
e 87 176
e 87 198
e 87 200
e 87 232
e 87 240
e 87 252
e 87 266
e 87 267
e 87 272
e 88 89
e 88 106
e 88 107
e 88 115
e 88 133
e 88 138
e 88 141
e 88 150
e 88 184
e 88 196
e 88 198
e 88 209
e 88 218
e 88 226
e 88 230
e 88 248
e 88 259
e 88 276
e 89 91
e 89 103
e 89 106
e 89 118
e 89 128
e 89 132
e 89 133
e 89 150
e 89 161
e 89 187
e 89 188
e 89 196
e 89 197
e 89 198
e 89 209
e 89 226
e 89 248
e 89 252
e 90 121
e 90 126
e 90 146
e 90 154
e 90 155
e 90 165
e 90 170
e 90 172
e 90 197
e 90 228
e 90 231
e 90 233
e 90 263
e 90 264
e 90 270
e 90 277
e 91 98
e 91 103
e 91 105
e 91 118
e 91 120
e 91 128
e 91 132
e 91 139
e 91 142
e 91 143
e 91 161
e 91 185
e 91 187
e 91 188
e 91 197
e 91 220
e 91 252
e 91 256
e 92 95
e 92 114
e 92 119
e 92 121
e 92 127
e 92 153
e 92 164
e 92 171
e 92 178
e 92 210
e 92 222
e 92 229
e 92 234
e 92 244
e 92 269
e 93 109
e 93 148
e 93 152
e 93 159
e 93 175
e 93 202
e 93 214
e 93 278
e 93 280
e 94 95
e 94 108
e 94 137
e 94 141
e 94 142
e 94 145
e 94 147
e 94 166
e 94 169
e 94 175
e 94 176
e 94 202
e 94 207
e 94 211
e 94 223
e 94 228
e 94 245
e 94 271
e 95 108
e 95 114
e 95 119
e 95 121
e 95 127
e 95 142
e 95 164
e 95 166
e 95 176
e 95 202
e 95 207
e 95 228
e 95 229
e 95 234
e 95 244
e 95 245
e 95 269
e 95 271
e 96 107
e 96 136
e 96 158
e 96 160
e 96 171
e 96 173
e 96 174
e 96 183
e 96 195
e 96 212
e 96 213
e 96 217
e 96 225
e 96 231
e 96 235
e 96 236
e 96 237
e 96 241
e 96 248
e 96 253
e 96 258
e 96 270
e 97 102
e 97 124
e 97 129
e 97 133
e 97 180
e 97 192
e 97 199
e 97 207
e 97 219
e 97 223
e 97 232
e 97 242
e 97 246
e 97 256
e 97 260
e 97 263
e 97 280
e 98 105
e 98 113
e 98 120
e 98 127
e 98 130
e 98 137
e 98 139
e 98 142
e 98 143
e 98 183
e 98 185
e 98 220
e 98 247
e 98 254
e 98 256
e 98 266
e 98 278
e 98 281
e 99 110
e 99 115
e 99 118
e 99 144
e 99 146
e 99 148
e 99 149
e 99 164
e 99 192
e 99 201
e 99 206
e 99 209
e 99 212
e 99 215
e 99 220
e 99 225
e 99 233
e 99 239
e 99 243
e 99 247
e 99 255
e 99 267
e 99 279
e 100 104
e 100 112
e 100 139
e 100 140
e 100 147
e 100 152
e 100 154
e 100 190
e 100 194
e 100 195
e 100 204
e 100 206
e 100 208
e 100 218
e 100 229
e 101 104
e 101 111
e 101 119
e 101 125
e 101 144
e 101 159
e 101 163
e 101 168
e 101 169
e 101 177
e 101 181
e 101 216
e 101 224
e 101 236
e 101 249
e 101 255
e 101 260
e 101 281
e 102 114
e 102 120
e 102 145
e 102 162
e 102 179
e 102 192
e 102 199
e 102 205
e 102 207
e 102 219
e 102 224
e 102 232
e 102 246
e 102 250
e 102 258
e 102 260
e 103 108
e 103 118
e 103 128
e 103 132
e 103 161
e 103 178
e 103 187
e 103 188
e 103 197
e 103 208
e 103 238
e 103 252
e 103 253
e 103 257
e 104 111
e 104 139
e 104 144
e 104 147
e 104 152
e 104 159
e 104 163
e 104 168
e 104 195
e 104 206
e 104 208
e 104 216
e 104 224
e 104 229
e 104 249
e 104 281
e 105 120
e 105 123
e 105 135
e 105 139
e 105 142
e 105 143
e 105 165
e 105 167
e 105 168
e 105 185
e 105 193
e 105 220
e 105 239
e 105 256
e 106 117
e 106 133
e 106 150
e 106 196
e 106 198
e 106 200
e 106 209
e 106 226
e 106 238
e 106 248
e 106 274
e 107 115
e 107 138
e 107 141
e 107 171
e 107 173
e 107 183
e 107 184
e 107 195
e 107 212
e 107 218
e 107 230
e 107 231
e 107 235
e 107 236
e 107 237
e 107 258
e 107 259
e 107 276
e 108 142
e 108 166
e 108 176
e 108 178
e 108 202
e 108 207
e 108 208
e 108 228
e 108 238
e 108 245
e 108 253
e 108 257
e 108 271
e 109 134
e 109 150
e 109 152
e 109 155
e 109 202
e 109 211
e 109 214
e 109 219
e 109 261
e 109 262
e 109 268
e 109 269
e 109 278
e 109 280
e 110 125
e 110 128
e 110 144
e 110 149
e 110 164
e 110 179
e 110 192
e 110 201
e 110 209
e 110 212
e 110 220
e 110 233
e 110 243
e 110 251
e 110 259
e 110 265
e 110 273
e 110 277
e 110 279
e 111 131
e 111 144
e 111 159
e 111 163
e 111 168
e 111 173
e 111 199
e 111 204
e 111 215
e 111 216
e 111 224
e 111 226
e 111 249
e 111 273
e 111 281
e 112 116
e 112 140
e 112 154
e 112 185
e 112 190
e 112 194
e 112 203
e 112 204
e 112 214
e 112 216
e 112 218
e 112 227
e 112 246
e 112 257
e 112 272
e 113 127
e 113 130
e 113 131
e 113 137
e 113 174
e 113 183
e 113 187
e 113 201
e 113 221
e 113 230
e 113 245
e 113 247
e 113 254
e 113 266
e 113 278
e 113 281
e 114 119
e 114 120
e 114 121
e 114 127
e 114 145
e 114 162
e 114 164
e 114 179
e 114 205
e 114 224
e 114 229
e 114 234
e 114 244
e 114 250
e 114 258
e 114 269
e 115 118
e 115 138
e 115 141
e 115 146
e 115 148
e 115 184
e 115 206
e 115 215
e 115 218
e 115 225
e 115 230
e 115 239
e 115 247
e 115 255
e 115 259
e 115 267
e 115 276
e 116 122
e 116 126
e 116 134
e 116 135
e 116 151
e 116 180
e 116 184
e 116 185
e 116 203
e 116 214
e 116 216
e 116 227
e 116 241
e 116 243
e 116 246
e 116 257
e 116 272
e 117 123
e 117 166
e 117 182
e 117 188
e 117 200
e 117 203
e 117 210
e 117 213
e 117 238
e 117 274
e 118 128
e 118 132
e 118 146
e 118 148
e 118 161
e 118 187
e 118 188
e 118 197
e 118 206
e 118 215
e 118 225
e 118 239
e 118 247
e 118 252
e 118 255
e 118 267
e 119 121
e 119 125
e 119 127
e 119 164
e 119 169
e 119 177
e 119 181
e 119 229
e 119 234
e 119 236
e 119 244
e 119 255
e 119 260
e 119 269
e 120 139
e 120 142
e 120 143
e 120 145
e 120 162
e 120 179
e 120 185
e 120 205
e 120 220
e 120 224
e 120 250
e 120 256
e 120 258
e 121 126
e 121 127
e 121 146
e 121 154
e 121 164
e 121 170
e 121 229
e 121 231
e 121 234
e 121 244
e 121 264
e 121 269
e 121 277
e 122 126
e 122 134
e 122 135
e 122 140
e 122 143
e 122 151
e 122 156
e 122 157
e 122 172
e 122 180
e 122 184
e 122 198
e 122 232
e 122 241
e 122 243
e 122 267
e 123 135
e 123 165
e 123 166
e 123 167
e 123 168
e 123 182
e 123 188
e 123 193
e 123 203
e 123 210
e 123 213
e 123 239
e 124 129
e 124 132
e 124 133
e 124 156
e 124 170
e 124 180
e 124 181
e 124 223
e 124 242
e 124 256
e 124 263
e 124 271
e 124 279
e 124 280
e 125 128
e 125 169
e 125 177
e 125 179
e 125 181
e 125 236
e 125 251
e 125 255
e 125 259
e 125 260
e 125 265
e 125 273
e 125 277
e 126 134
e 126 135
e 126 146
e 126 151
e 126 154
e 126 170
e 126 180
e 126 184
e 126 231
e 126 241
e 126 243
e 126 264
e 126 277
e 127 130
e 127 137
e 127 164
e 127 183
e 127 229
e 127 234
e 127 244
e 127 247
e 127 254
e 127 266
e 127 269
e 127 278
e 127 281
e 128 132
e 128 161
e 128 179
e 128 187
e 128 188
e 128 197
e 128 251
e 128 252
e 128 259
e 128 265
e 128 273
e 128 277
e 129 133
e 129 149
e 129 158
e 129 162
e 129 177
e 129 180
e 129 191
e 129 223
e 129 242
e 129 254
e 129 256
e 129 263
e 129 264
e 129 268
e 129 275
e 129 280
e 130 136
e 130 137
e 130 138
e 130 157
e 130 161
e 130 183
e 130 186
e 130 189
e 130 222
e 130 227
e 130 242
e 130 247
e 130 250
e 130 254
e 130 262
e 130 266
e 130 278
e 130 281
e 131 173
e 131 174
e 131 187
e 131 199
e 131 201
e 131 204
e 131 215
e 131 221
e 131 226
e 131 230
e 131 245
e 131 273
e 132 156
e 132 161
e 132 170
e 132 181
e 132 187
e 132 188
e 132 197
e 132 252
e 132 271
e 132 279
e 133 150
e 133 180
e 133 196
e 133 198
e 133 209
e 133 223
e 133 226
e 133 242
e 133 248
e 133 256
e 133 263
e 133 280
e 134 135
e 134 150
e 134 151
e 134 155
e 134 180
e 134 184
e 134 211
e 134 219
e 134 241
e 134 243
e 134 261
e 134 262
e 134 268
e 134 269
e 135 151
e 135 165
e 135 167
e 135 168
e 135 180
e 135 184
e 135 193
e 135 239
e 135 241
e 135 243
e 136 138
e 136 157
e 136 158
e 136 160
e 136 161
e 136 174
e 136 186
e 136 189
e 136 213
e 136 217
e 136 222
e 136 225
e 136 227
e 136 241
e 136 242
e 136 248
e 136 250
e 136 253
e 136 262
e 136 270
e 137 141
e 137 145
e 137 147
e 137 169
e 137 175
e 137 183
e 137 211
e 137 223
e 137 247
e 137 254
e 137 266
e 137 278
e 137 281
e 138 141
e 138 157
e 138 161
e 138 184
e 138 186
e 138 189
e 138 218
e 138 222
e 138 227
e 138 230
e 138 242
e 138 250
e 138 259
e 138 262
e 138 276
e 139 142
e 139 143
e 139 147
e 139 152
e 139 185
e 139 195
e 139 206
e 139 208
e 139 220
e 139 229
e 139 256
e 140 143
e 140 154
e 140 156
e 140 157
e 140 172
e 140 190
e 140 194
e 140 198
e 140 204
e 140 218
e 140 232
e 140 267
e 141 145
e 141 147
e 141 169
e 141 175
e 141 184
e 141 211
e 141 218
e 141 223
e 141 230
e 141 259
e 141 276
e 142 143
e 142 166
e 142 176
e 142 185
e 142 202
e 142 207
e 142 220
e 142 228
e 142 245
e 142 256
e 142 271
e 143 156
e 143 157
e 143 172
e 143 185
e 143 198
e 143 220
e 143 232
e 143 256
e 143 267
e 144 149
e 144 159
e 144 163
e 144 164
e 144 168
e 144 192
e 144 201
e 144 209
e 144 212
e 144 216
e 144 220
e 144 224
e 144 233
e 144 243
e 144 249
e 144 279
e 144 281
e 145 147
e 145 162
e 145 169
e 145 175
e 145 179
e 145 205
e 145 211
e 145 223
e 145 224
e 145 250
e 145 258
e 146 148
e 146 154
e 146 170
e 146 206
e 146 215
e 146 225
e 146 231
e 146 239
e 146 247
e 146 255
e 146 264
e 146 267
e 146 277
e 147 152
e 147 169
e 147 175
e 147 195
e 147 206
e 147 208
e 147 211
e 147 223
e 147 229
e 148 159
e 148 175
e 148 206
e 148 215
e 148 225
e 148 239
e 148 247
e 148 255
e 148 267
e 149 158
e 149 162
e 149 164
e 149 177
e 149 191
e 149 192
e 149 201
e 149 209
e 149 212
e 149 220
e 149 233
e 149 243
e 149 254
e 149 264
e 149 268
e 149 275
e 149 279
e 150 155
e 150 196
e 150 198
e 150 209
e 150 211
e 150 219
e 150 226
e 150 248
e 150 261
e 150 262
e 150 268
e 150 269
e 151 180
e 151 184
e 151 186
e 151 194
e 151 237
e 151 240
e 151 241
e 151 243
e 151 244
e 151 249
e 151 265
e 151 275
e 152 195
e 152 202
e 152 206
e 152 208
e 152 214
e 152 229
e 152 278
e 152 280
e 153 171
e 153 178
e 153 193
e 153 205
e 153 210
e 153 217
e 153 222
e 153 261
e 153 274
e 153 276
e 154 170
e 154 190
e 154 194
e 154 204
e 154 218
e 154 231
e 154 264
e 154 277
e 155 165
e 155 172
e 155 197
e 155 211
e 155 219
e 155 228
e 155 233
e 155 261
e 155 262
e 155 263
e 155 268
e 155 269
e 155 270
e 156 157
e 156 170
e 156 172
e 156 181
e 156 198
e 156 232
e 156 267
e 156 271
e 156 279
e 157 161
e 157 172
e 157 186
e 157 189
e 157 198
e 157 222
e 157 227
e 157 232
e 157 242
e 157 250
e 157 262
e 157 267
e 158 160
e 158 162
e 158 174
e 158 177
e 158 191
e 158 213
e 158 217
e 158 225
e 158 241
e 158 248
e 158 253
e 158 254
e 158 264
e 158 268
e 158 270
e 158 275
e 159 163
e 159 168
e 159 175
e 159 216
e 159 224
e 159 249
e 159 281
e 160 167
e 160 174
e 160 176
e 160 200
e 160 213
e 160 217
e 160 225
e 160 240
e 160 241
e 160 248
e 160 252
e 160 253
e 160 266
e 160 270
e 160 272
e 161 186
e 161 187
e 161 188
e 161 189
e 161 197
e 161 222
e 161 227
e 161 242
e 161 250
e 161 252
e 161 262
e 162 177
e 162 179
e 162 191
e 162 205
e 162 224
e 162 250
e 162 254
e 162 258
e 162 264
e 162 268
e 162 275
e 163 168
e 163 182
e 163 189
e 163 190
e 163 191
e 163 196
e 163 216
e 163 221
e 163 224
e 163 234
e 163 235
e 163 249
e 163 251
e 163 281
e 164 192
e 164 201
e 164 209
e 164 212
e 164 220
e 164 229
e 164 233
e 164 234
e 164 243
e 164 244
e 164 269
e 164 279
e 165 167
e 165 168
e 165 172
e 165 193
e 165 197
e 165 228
e 165 233
e 165 239
e 165 263
e 165 270
e 166 176
e 166 182
e 166 188
e 166 202
e 166 203
e 166 207
e 166 210
e 166 213
e 166 228
e 166 245
e 166 271
e 167 168
e 167 176
e 167 193
e 167 200
e 167 239
e 167 240
e 167 252
e 167 266
e 167 272
e 168 193
e 168 216
e 168 224
e 168 239
e 168 249
e 168 281
e 169 175
e 169 177
e 169 181
e 169 211
e 169 223
e 169 236
e 169 255
e 169 260
e 170 181
e 170 231
e 170 264
e 170 271
e 170 277
e 170 279
e 171 173
e 171 178
e 171 183
e 171 195
e 171 210
e 171 212
e 171 222
e 171 231
e 171 235
e 171 236
e 171 237
e 171 258
e 172 197
e 172 198
e 172 228
e 172 232
e 172 233
e 172 263
e 172 267
e 172 270
e 173 183
e 173 195
e 173 199
e 173 204
e 173 212
e 173 215
e 173 226
e 173 231
e 173 235
e 173 236
e 173 237
e 173 258
e 173 273
e 174 187
e 174 201
e 174 213
e 174 217
e 174 221
e 174 225
e 174 230
e 174 241
e 174 245
e 174 248
e 174 253
e 174 270
e 175 211
e 175 223
e 176 200
e 176 202
e 176 207
e 176 228
e 176 240
e 176 245
e 176 252
e 176 266
e 176 271
e 176 272
e 177 181
e 177 191
e 177 236
e 177 254
e 177 255
e 177 260
e 177 264
e 177 268
e 177 275
e 178 208
e 178 210
e 178 222
e 178 238
e 178 253
e 178 257
e 179 205
e 179 224
e 179 250
e 179 251
e 179 258
e 179 259
e 179 265
e 179 273
e 179 277
e 180 184
e 180 223
e 180 241
e 180 242
e 180 243
e 180 256
e 180 263
e 180 280
e 181 236
e 181 255
e 181 260
e 181 271
e 181 279
e 182 188
e 182 189
e 182 190
e 182 191
e 182 196
e 182 203
e 182 210
e 182 213
e 182 221
e 182 234
e 182 235
e 182 251
e 183 195
e 183 212
e 183 231
e 183 235
e 183 236
e 183 237
e 183 247
e 183 254
e 183 258
e 183 266
e 183 278
e 183 281
e 184 218
e 184 230
e 184 241
e 184 243
e 184 259
e 184 276
e 185 203
e 185 214
e 185 216
e 185 220
e 185 227
e 185 246
e 185 256
e 185 257
e 185 272
e 186 189
e 186 194
e 186 222
e 186 227
e 186 237
e 186 240
e 186 242
e 186 244
e 186 249
e 186 250
e 186 262
e 186 265
e 186 275
e 187 188
e 187 197
e 187 201
e 187 221
e 187 230
e 187 245
e 187 252
e 188 197
e 188 203
e 188 210
e 188 213
e 188 252
e 189 190
e 189 191
e 189 196
e 189 221
e 189 222
e 189 227
e 189 234
e 189 235
e 189 242
e 189 250
e 189 251
e 189 262
e 190 191
e 190 194
e 190 196
e 190 204
e 190 218
e 190 221
e 190 234
e 190 235
e 190 251
e 191 196
e 191 221
e 191 234
e 191 235
e 191 251
e 191 254
e 191 264
e 191 268
e 191 275
e 192 199
e 192 201
e 192 207
e 192 209
e 192 212
e 192 219
e 192 220
e 192 232
e 192 233
e 192 243
e 192 246
e 192 260
e 192 279
e 193 205
e 193 217
e 193 239
e 193 261
e 193 274
e 193 276
e 194 204
e 194 218
e 194 237
e 194 240
e 194 244
e 194 249
e 194 265
e 194 275
e 195 206
e 195 208
e 195 212
e 195 229
e 195 231
e 195 235
e 195 236
e 195 237
e 195 258
e 196 198
e 196 209
e 196 221
e 196 226
e 196 234
e 196 235
e 196 248
e 196 251
e 197 228
e 197 233
e 197 252
e 197 263
e 197 270
e 198 209
e 198 226
e 198 232
e 198 248
e 198 267
e 199 204
e 199 207
e 199 215
e 199 219
e 199 226
e 199 232
e 199 246
e 199 260
e 199 273
e 200 238
e 200 240
e 200 252
e 200 266
e 200 272
e 200 274
e 201 209
e 201 212
e 201 220
e 201 221
e 201 230
e 201 233
e 201 243
e 201 245
e 201 279
e 202 207
e 202 214
e 202 228
e 202 245
e 202 271
e 202 278
e 202 280
e 203 210
e 203 213
e 203 214
e 203 216
e 203 227
e 203 246
e 203 257
e 203 272
e 204 215
e 204 218
e 204 226
e 204 273
e 205 217
e 205 224
e 205 250
e 205 258
e 205 261
e 205 274
e 205 276
e 206 208
e 206 215
e 206 225
e 206 229
e 206 239
e 206 247
e 206 255
e 206 267
e 207 219
e 207 228
e 207 232
e 207 245
e 207 246
e 207 260
e 207 271
e 208 229
e 208 238
e 208 253
e 208 257
e 209 212
e 209 220
e 209 226
e 209 233
e 209 243
e 209 248
e 209 279
e 210 213
e 210 222
e 211 219
e 211 223
e 211 261
e 211 262
e 211 268
e 211 269
e 212 220
e 212 231
e 212 233
e 212 235
e 212 236
e 212 237
e 212 243
e 212 258
e 212 279
e 213 217
e 213 225
e 213 241
e 213 248
e 213 253
e 213 270
e 214 216
e 214 227
e 214 246
e 214 257
e 214 272
e 214 278
e 214 280
e 215 225
e 215 226
e 215 239
e 215 247
e 215 255
e 215 267
e 215 273
e 216 224
e 216 227
e 216 246
e 216 249
e 216 257
e 216 272
e 216 281
e 217 225
e 217 241
e 217 248
e 217 253
e 217 261
e 217 270
e 217 274
e 217 276
e 218 230
e 218 259
e 218 276
e 219 232
e 219 246
e 219 260
e 219 261
e 219 262
e 219 268
e 219 269
e 220 233
e 220 243
e 220 256
e 220 279
e 221 230
e 221 234
e 221 235
e 221 245
e 221 251
e 222 227
e 222 242
e 222 250
e 222 262
e 223 242
e 223 256
e 223 263
e 223 280
e 224 249
e 224 250
e 224 258
e 224 281
e 225 239
e 225 241
e 225 247
e 225 248
e 225 253
e 225 255
e 225 267
e 225 270
e 226 248
e 226 273
e 227 242
e 227 246
e 227 250
e 227 257
e 227 262
e 227 272
e 228 233
e 228 245
e 228 263
e 228 270
e 228 271
e 229 234
e 229 244
e 229 269
e 230 245
e 230 259
e 230 276
e 231 235
e 231 236
e 231 237
e 231 258
e 231 264
e 231 277
e 232 246
e 232 260
e 232 267
e 233 243
e 233 263
e 233 270
e 233 279
e 234 235
e 234 244
e 234 251
e 234 269
e 235 236
e 235 237
e 235 251
e 235 258
e 236 237
e 236 255
e 236 258
e 236 260
e 237 240
e 237 244
e 237 249
e 237 258
e 237 265
e 237 275
e 238 253
e 238 257
e 238 274
e 239 247
e 239 255
e 239 267
e 240 244
e 240 249
e 240 252
e 240 265
e 240 266
e 240 272
e 240 275
e 241 243
e 241 248
e 241 253
e 241 270
e 242 250
e 242 256
e 242 262
e 242 263
e 242 280
e 243 279
e 244 249
e 244 265
e 244 269
e 244 275
e 245 271
e 246 257
e 246 260
e 246 272
e 247 254
e 247 255
e 247 266
e 247 267
e 247 278
e 247 281
e 248 253
e 248 270
e 249 265
e 249 275
e 249 281
e 250 258
e 250 262
e 251 259
e 251 265
e 251 273
e 251 277
e 252 266
e 252 272
e 253 257
e 253 270
e 254 264
e 254 266
e 254 268
e 254 275
e 254 278
e 254 281
e 255 260
e 255 267
e 256 263
e 256 280
e 257 272
e 259 265
e 259 273
e 259 276
e 259 277
e 261 262
e 261 268
e 261 269
e 261 274
e 261 276
e 262 268
e 262 269
e 263 270
e 263 280
e 264 268
e 264 275
e 264 277
e 265 273
e 265 275
e 265 277
e 266 272
e 266 278
e 266 281
e 268 269
e 268 275
e 271 279
e 273 277
e 274 276
e 278 280
e 278 281
